words_hard_train/1192.qaiger
aag 54 12 0 1 42
2
4
8
10
14
20
32
38
40
58
72
82
109
6 3 4
12 8 11
16 13 15
18 7 17
22 20 8
24 23 10
26 25 14
28 18 27
30 2 5
34 5 33
36 35 10
42 38 40
44 39 41
46 43 45
48 36 47
50 31 49
52 28 50
54 34 41
56 55 10
60 57 59
62 61 8
64 52 63
66 56 20
68 57 21
70 67 69
74 71 73
76 70 72
78 75 77
80 64 78
84 32 83
86 33 82
88 85 87
90 4 10
92 89 91
94 88 90
96 93 95
98 37 46
100 96 99
102 69 58
104 103 9
106 100 105
108 80 106
i0 1 x2[4]
i1 2 y2[0]
i2 2 y2[5]
i3 2 y2[7]
i4 2 y2[6]
i5 2 y2[3]
i6 2 y2[1]
i7 1 x2[6]
i8 2 y2[2]
i9 2 y2[4]
i10 1 x2[7]
i11 1 x2[5]
o0 bool[0]
c
simplified
  !=
    add
      >> 4
        1 x2
      << 3
        165
    abs
      2 y2
