words_hard_train/1192.qaiger.qdimacs
p cnf 54 127
a 1 19 36 41 0
e 2 3 4 5 6 7 8 9 10 11 12 13 14 15 16 17 18 20 21 22 23 24 25 26 27 28 29 30 31 32 33 34 35 37 38 39 40 42 43 44 45 46 47 48 49 50 51 52 53 54 0
1 -2 3 0
-1 -3 0
2 -3 0
-4 5 6 0
4 -6 0
-5 -6 0
6 7 8 0
-6 -8 0
-7 -8 0
3 8 9 0
-3 -9 0
-8 -9 0
-10 -4 11 0
10 -11 0
4 -11 0
11 -5 12 0
-11 -12 0
5 -12 0
12 -7 13 0
-12 -13 0
7 -13 0
-9 13 14 0
9 -14 0
-13 -14 0
-1 2 15 0
1 -15 0
-2 -15 0
2 16 17 0
-2 -17 0
-16 -17 0
17 -5 18 0
-17 -18 0
5 -18 0
-19 -20 21 0
19 -21 0
20 -21 0
19 20 22 0
-19 -22 0
-20 -22 0
21 22 23 0
-21 -23 0
-22 -23 0
-18 23 24 0
18 -24 0
-23 -24 0
15 24 25 0
-15 -25 0
-24 -25 0
-14 -25 26 0
14 -26 0
25 -26 0
-17 20 27 0
17 -27 0
-20 -27 0
27 -5 28 0
-27 -28 0
5 -28 0
28 29 30 0
-28 -30 0
-29 -30 0
30 -4 31 0
-30 -31 0
4 -31 0
-26 31 32 0
26 -32 0
-31 -32 0
-28 -10 33 0
28 -33 0
10 -33 0
28 10 34 0
-28 -34 0
-10 -34 0
33 34 35 0
-33 -35 0
-34 -35 0
35 36 37 0
-35 -37 0
-36 -37 0
-35 -36 38 0
35 -38 0
36 -38 0
37 38 39 0
-37 -39 0
-38 -39 0
-32 -39 40 0
32 -40 0
39 -40 0
-16 41 42 0
16 -42 0
-41 -42 0
16 -41 43 0
-16 -43 0
41 -43 0
42 43 44 0
-42 -44 0
-43 -44 0
-2 -5 45 0
2 -45 0
5 -45 0
44 45 46 0
-44 -46 0
-45 -46 0
-44 -45 47 0
44 -47 0
45 -47 0
46 47 48 0
-46 -48 0
-47 -48 0
18 -23 49 0
-18 -49 0
23 -49 0
-48 49 50 0
48 -50 0
-49 -50 0
34 -29 51 0
-34 -51 0
29 -51 0
51 4 52 0
-51 -52 0
-4 -52 0
-50 52 53 0
50 -53 0
-52 -53 0
-40 -53 54 0
40 -54 0
53 -54 0
-54 0
